proyfinal/src/viki/013/andrea/andrea-localstore/experimentInOfficeAgust.take6/worker_8/bf88c46d-357b-4472-8f4c-208877a9918a.als.cnf.out
Reading from standard input... Use '--help' for help.
============================[ Problem Statistics ]=============================
|                                                                             |
|  Number of variables:         87638                                         |
|  Number of clauses:          161767                                         |
|  Parse time:                   0.03 s                                       |
|                                                                             |
============================[ Search Statistics ]==============================
| Conflicts |          ORIGINAL         |          LEARNT          | Progress |
|           |    Vars  Clauses Literals |    Limit  Clauses Lit/Cl |          |
===============================================================================
|       100 |   63864   110511   276102 |    40520      100     72 | 27.128 % |
|       250 |   63846   110511   276102 |    44572      249     73 | 27.148 % |
|       475 |   63846   110437   275931 |    49030      474     97 | 27.148 % |
|       812 |   63846   110437   275931 |    53933      811    103 | 27.148 % |
|      1318 |   63846   110437   275931 |    59326     1317    103 | 27.148 % |
|      2077 |   63846   110437   275931 |    65258     2076    104 | 27.148 % |
|      3216 |   63809   110287   275584 |    71784     3212    140 | 27.190 % |
|      4924 |   63780   110171   275292 |    78963     4765    125 | 27.223 % |
|      7486 |   63758   110127   275202 |    86859     7320    118 | 27.248 % |
|     11330 |   63688   109825   274510 |    95545    11157    117 | 27.328 % |
===============================================================================
restarts              : 62
conflicts             : 15712          (6047 /sec)
decisions             : 71191          (0.00 % random) (27398 /sec)
propagations          : 24836316       (9558205 /sec)
conflict literals     : 1984578        (38.87 % deleted)
Memory used           : 43.98 MB
CPU time              : 2.59843 s

INDETERMINATE
